(set-logic ALL)
(declare-fun seed0_T_1 () Int)
(declare-fun seed0_T_2 () Bool)
(declare-fun seed0_T_3 () Bool)
(declare-fun seed0_var_0xINPUT_250999 () String)
(assert (and (or (>= seed0_T_1 (str.len seed0_var_0xINPUT_250999)) (not (> (+ seed0_T_1 (- 250)) (* seed0_T_1 seed0_T_1)))) (or (= seed0_T_2 (= seed0_T_1 0)) (> (+ seed0_T_1 (- 481)) (div seed0_T_1 seed0_T_1))) (or (= seed0_T_3 (not seed0_T_2)) (xor (<= (- seed0_T_1 493) (mod seed0_T_1 seed0_T_1)) (< (* seed0_T_1 seed0_T_1) (* seed0_T_1 seed0_T_1)))) (or seed0_T_3 (not (distinct (- seed0_T_1 774) (div seed0_T_1 seed0_T_1))))))
(check-sat)
(exit)